Set parameter Username
Academic license - for non-commercial use only - expires 2022-06-20
Gurobi Optimizer version 9.5.1 build v9.5.1rc2 (mac64[x86])
Thread count: 2 physical cores, 4 logical processors, using up to 4 threads
Optimize a model with 5329 rows, 5184 columns and 20664 nonzeros
Model fingerprint: 0xad72c5fb
Variable types: 0 continuous, 5184 integer (5184 binary)
Coefficient statistics:
  Matrix range     [1e+00, 4e+05]
  Objective range  [2e-01, 6e+00]
  Bounds range     [1e+00, 1e+00]
  RHS range        [1e+00, 8e+00]
Found heuristic solution: objective 148.9008824
Presolve removed 298 rows and 141 columns
Presolve time: 0.12s
Presolved: 5031 rows, 5043 columns, 20420 nonzeros
Variable types: 0 continuous, 5043 integer (5043 binary)
Found heuristic solution: objective 89.5264025

Root relaxation: objective 4.535540e+01, 1522 iterations, 0.12 seconds (0.13 work units)

    Nodes    |    Current Node    |     Objective Bounds      |     Work
 Expl Unexpl |  Obj  Depth IntInf | Incumbent    BestBd   Gap | It/Node Time

     0     0   45.35540    0  230   89.52640   45.35540  49.3%     -    0s
H    0     0                      48.0914300   45.35540  5.69%     -    0s
H    0     0                      48.0107227   45.35540  5.53%     -    0s
H    0     0                      46.9788529   45.35540  3.46%     -    0s
     0     0   45.80681    0  176   46.97885   45.80681  2.49%     -    0s
     0     0   45.80681    0  230   46.97885   45.80681  2.49%     -    0s
H    0     0                      46.4897835   45.80681  1.47%     -    0s
     0     0   45.80681    0  175   46.48978   45.80681  1.47%     -    0s
     0     0   45.80681    0  169   46.48978   45.80681  1.47%     -    1s
     0     0   45.82034    0  182   46.48978   45.82034  1.44%     -    1s
H    0     0                      46.4575874   45.82034  1.37%     -    1s
     0     0   45.91218    0  194   46.45759   45.91218  1.17%     -    1s
     0     0   45.95188    0  209   46.45759   45.95188  1.09%     -    1s
H    0     0                      46.4457596   45.95188  1.06%     -    1s
     0     0   45.99740    0  216   46.44576   45.99740  0.97%     -    1s
     0     0   46.10979    0  268   46.44576   46.10979  0.72%     -    1s
     0     0   46.10979    0   32   46.44576   46.10979  0.72%     -    1s
     0     0   46.10979    0  112   46.44576   46.10979  0.72%     -    1s
     0     0   46.12350    0  156   46.44576   46.12350  0.69%     -    1s
     0     0   46.12438    0  166   46.44576   46.12438  0.69%     -    1s
     0     0   46.12522    0  174   46.44576   46.12522  0.69%     -    1s
     0     0   46.12522    0  174   46.44576   46.12522  0.69%     -    1s
     0     0   46.12645    0   31   46.44576   46.12645  0.69%     -    1s
     0     0   46.12645    0  106   46.44576   46.12645  0.69%     -    1s
     0     0   46.13513    0  151   46.44576   46.13513  0.67%     -    1s
     0     0   46.14807    0  160   46.44576   46.14807  0.64%     -    1s
     0     0   46.17723    0  160   46.44576   46.17723  0.58%     -    1s
     0     0   46.19511    0  197   46.44576   46.19511  0.54%     -    1s
     0     0   46.19530    0  205   46.44576   46.19530  0.54%     -    1s
     0     0   46.19672    0  201   46.44576   46.19672  0.54%     -    1s
     0     0   46.19707    0  198   46.44576   46.19707  0.54%     -    1s
     0     0   46.19795    0  198   46.44576   46.19795  0.53%     -    1s
     0     0   46.19795    0  198   46.44576   46.19795  0.53%     -    1s
     0     0   46.20286    0   28   46.44576   46.20286  0.52%     -    1s
     0     0   46.20286    0  109   46.44576   46.20286  0.52%     -    1s
     0     0   46.20286    0  159   46.44576   46.20286  0.52%     -    1s
     0     0   46.20455    0  157   46.44576   46.20455  0.52%     -    1s
     0     0   46.20455    0  157   46.44576   46.20455  0.52%     -    2s
     0     2   46.21425    0  157   46.44576   46.21425  0.50%     -    2s

Cutting planes:
  MIR: 1
  StrongCG: 4
  GUB cover: 8
  Zero half: 1
  RLT: 1

Explored 21 nodes (8910 simplex iterations) in 2.08 seconds (1.04 work units)
Thread count was 4 (of 4 available processors)

Solution count 8: 46.4458 46.4576 46.4898 ... 148.901

Optimal solution found (tolerance 1.00e-04)
Best objective 4.644575960291e+01, best bound 4.644575960291e+01, gap 0.0000%
